\* The_Nutrients_Problem *\
Minimize
OBJ: __dummy
Subject To
_C1: 3.4 Food_Картошка_фри + 14.1 Food_Котлета + 6 Food_Молочный_коктейль
 + 0.8 Food_Огурец + 1.1 Food_Помидор + 8.8 Food_Хлеб = 30
_C2: 15 Food_Картошка_фри + 15.7 Food_Котлета + 5 Food_Молочный_коктейль
 + 0.1 Food_Огурец + 0.2 Food_Помидор + 3.3 Food_Хлеб = 25
_C3: 41 Food_Картошка_фри + 6.6 Food_Котлета + 45 Food_Молочный_коктейль
 + 2.5 Food_Огурец + 3.8 Food_Помидор + 46.7 Food_Хлеб = 60
Bounds
 0.1 <= Food_Картошка_фри <= 1.5
 0.1 <= Food_Котлета <= 1.5
 0.1 <= Food_Молочный_коктейль <= 1.5
 0.1 <= Food_Огурец <= 1.5
 0.1 <= Food_Помидор <= 1.5
 0.1 <= Food_Хлеб <= 1.5
 __dummy = 0
End
